<number of tasks>
50

<cycle time>
1000

<order strength>
0.195


<task times>
1 158
2 94
3 165
4 61
5 51
6 34
7 93
8 34
9 218
10 201
11 52
12 60
13 153
14 161
15 115
16 159
17 214
18 176
19 107
20 95
21 25
22 107
23 249
24 51
25 47
26 253
27 204
28 55
29 204
30 75
31 25
32 45
33 134
34 24
35 88
36 197
37 107
38 45
39 164
40 66
41 87
42 92
43 144
44 210
45 100
46 36
47 122
48 106
49 182
50 86

<precedence relations>
1,40
2,7
2,10
2,40
3,6
3,11
3,12
4,6
4,8
4,13
5,9
5,10
6,40
7,16
8,14
8,35
9,15
10,18
11,17
11,19
11,49
12,49
13,38
14,23
15,24
16,25
17,21
17,27
17,42
18,22
19,20
19,26
19,38
20,40
21,28
22,29
23,30
24,31
25,31
26,32
27,33
27,34
28,37
29,36
30,38
32,37
33,39
34,35
35,40
36,41
38,42
39,43
40,44
40,45
40,46
40,47
41,49
42,50
43,48

<end>
